(set-logic QF_S)
(declare-fun S () String)
(declare-fun J () String)
(declare-fun T () String)
(declare-fun I () String)
(declare-fun K () String)
(declare-fun U () String)
(declare-fun L () String)
(declare-fun M () String)
(declare-fun P () String)
(declare-fun Q () String)
(assert (= (str.++  I "aaaaaa" I "aaaaab" K K K "aaa" K K "b" P "aab" S S "b" T)  (str.++  "aaaaaaaa" J "aa" L K "a" M L K "a" M "b" M "a" M "aba" Q "a" Q "b" U U "baa") ))
(check-sat)
(get-model)
